<?xml version = "1.0" standalone="yes"?>
<!-- This file has been generated by DOcplex version 2.23.222  -->
<CPLEXSolution version="1.0">
 <header
   problemName="CVRP"
   objectiveValue="14138.1"
  />
 <variables>
  <variable name="x_0_1" index="0" value="1.00000"/>
  <variable name="x_0_2" index="1" value="1.00000"/>
  <variable name="x_0_3" index="2" value="1.00000"/>
  <variable name="x_0_4" index="3" value="1.00000"/>
  <variable name="x_0_6" index="5" value="1.00000"/>
  <variable name="x_0_8" index="7" value="1.00000"/>
  <variable name="x_0_10" index="9" value="1.00000"/>
  <variable name="x_0_12" index="11" value="1.00000"/>
  <variable name="x_0_16" index="15" value="1.00000"/>
  <variable name="x_0_17" index="16" value="1.00000"/>
  <variable name="x_0_19" index="18" value="1.00000"/>
  <variable name="x_1_0" index="19" value="1.00000"/>
  <variable name="x_2_0" index="38" value="1.00000"/>
  <variable name="x_3_0" index="57" value="1.00000"/>
  <variable name="x_4_13" index="88" value="1.00000"/>
  <variable name="x_5_0" index="95" value="1.00000"/>
  <variable name="x_6_9" index="122" value="1.00000"/>
  <variable name="x_7_0" index="133" value="1.00000"/>
  <variable name="x_8_0" index="152" value="1.00000"/>
  <variable name="x_9_7" index="178" value="1.00000"/>
  <variable name="x_10_18" index="207" value="1.00000"/>
  <variable name="x_11_15" index="223" value="1.00000"/>
  <variable name="x_12_0" index="228" value="1.00000"/>
  <variable name="x_13_5" index="252" value="1.00000"/>
  <variable name="x_14_0" index="266" value="1.00000"/>
  <variable name="x_15_0" index="285" value="1.00000"/>
  <variable name="x_16_0" index="304" value="1.00000"/>
  <variable name="x_17_14" index="337" value="1.00000"/>
  <variable name="x_18_11" index="353" value="1.00000"/>
  <variable name="x_19_0" index="361" value="1.00000"/>
  <variable name="u_1" index="380" value="27.00000"/>
  <variable name="u_2" index="381" value="12.00000"/>
  <variable name="u_3" index="382" value="28.00000"/>
  <variable name="u_4" index="383" value="4.00000"/>
  <variable name="u_5" index="384" value="24.00000"/>
  <variable name="u_6" index="385" value="11.00000"/>
  <variable name="u_7" index="386" value="29.00000"/>
  <variable name="u_8" index="387" value="24.00000"/>
  <variable name="u_9" index="388" value="26.00000"/>
  <variable name="u_10" index="389" value="8.00000"/>
  <variable name="u_11" index="390" value="20.00000"/>
  <variable name="u_12" index="391" value="28.00000"/>
  <variable name="u_13" index="392" value="9.00000"/>
  <variable name="u_14" index="393" value="27.00000"/>
  <variable name="u_15" index="394" value="27.00000"/>
  <variable name="u_16" index="395" value="29.00000"/>
  <variable name="u_17" index="396" value="26.00000"/>
  <variable name="u_18" index="397" value="10.00000"/>
  <variable name="u_19" index="398" value="28.00000"/>
 </variables>
</CPLEXSolution>
